79 80
14 45 1
81 33 1
100 21 1
16 4 1
13 100 1
74 3 1
5 87 1
12 86 1
25 77 1
14 90 1
22 68 1
19 78 1
99 45 1
27 85 1
1 38 1
38 77 1
32 89 1
2 89 1
42 89 1
19 28 1
78 85 1
39 100 1
44 94 1
12 66 1
91 49 1
37 85 1
8 72 1
16 90 1
55 73 1
97 69 1
33 93 1
81 81 1
38 72 1
19 80 1
20 88 1
9 92 1
80 57 1
3 89 1
78 37 1
49 71 1
35 78 2
48 72 1
29 67 1
49 39 1
66 39 1
53 97 1
51 79 1
12 87 1
29 23 1
23 97 1
36 91 1
19 77 1
3 69 1
80 68 1
22 67 1
20 82 1
44 84 1
92 31 1
20 86 1
33 94 1
48 73 1
56 54 1
29 79 1
8 80 1
13 69 1
37 94 1
50 79 1
44 13 1
40 13 1
86 38 1
32 88 1
42 76 1
28 31 1
33 98 1
27 70 1
2 87 1
28 73 1
49 78 1
32 96 1
100 100 
100 100 
100 100 
100 100 
100 100 
100 100 
100 100 
100 100 
100 100 
100 100 
100 100 
100 100 
100 100 
100 100 
100 100 
100 100 
100 100 
100 100 
100 100 
100 100 
100 100 
100 100 
100 100 
100 100 
100 100 
100 100 
100 100 
100 100 
100 100 
100 100 
100 100 
100 100 
100 100 
100 100 
100 100 
100 100 
100 100 
100 100 
100 100 
100 100 
100 100 
100 100 
100 100 
100 100 
100 100 
100 100 
100 100 
100 100 
100 100 
100 100 
100 100 
100 100 
100 100 
100 100 
100 100 
100 100 
100 100 
100 100 
100 100 
100 100 
100 100 
100 100 
100 100 
100 100 
100 100 
100 100 
100 100 
100 100 
100 100 
100 100 
100 100 
100 100 
100 100 
100 100 
100 100 
100 100 
100 100 
100 100 
100 100 
100 100 
